p edge 121 3615
e 1 3
e 1 5
e 1 9
e 1 12
e 1 13
e 1 14
e 1 16
e 1 17
e 1 20
e 1 22
e 1 24
e 1 28
e 1 29
e 1 30
e 1 33
e 1 38
e 1 40
e 1 41
e 1 42
e 1 43
e 1 44
e 1 46
e 1 48
e 1 49
e 1 50
e 1 51
e 1 54
e 1 55
e 1 57
e 1 58
e 1 60
e 1 64
e 1 68
e 1 71
e 1 72
e 1 75
e 1 77
e 1 80
e 1 81
e 1 83
e 1 87
e 1 89
e 1 90
e 1 91
e 1 94
e 1 95
e 1 96
e 1 97
e 1 98
e 1 99
e 1 100
e 1 101
e 1 103
e 1 105
e 1 106
e 1 107
e 1 108
e 1 110
e 1 111
e 1 113
e 1 115
e 1 116
e 1 118
e 1 119
e 1 120
e 2 3
e 2 5
e 2 8
e 2 9
e 2 10
e 2 12
e 2 14
e 2 16
e 2 26
e 2 27
e 2 29
e 2 30
e 2 31
e 2 33
e 2 35
e 2 37
e 2 38
e 2 39
e 2 40
e 2 42
e 2 43
e 2 44
e 2 45
e 2 46
e 2 47
e 2 50
e 2 51
e 2 52
e 2 53
e 2 55
e 2 56
e 2 57
e 2 59
e 2 60
e 2 61
e 2 63
e 2 64
e 2 68
e 2 69
e 2 71
e 2 72
e 2 74
e 2 76
e 2 81
e 2 87
e 2 89
e 2 92
e 2 94
e 2 95
e 2 96
e 2 97
e 2 98
e 2 99
e 2 101
e 2 103
e 2 104
e 2 105
e 2 108
e 2 109
e 2 113
e 2 114
e 2 116
e 2 118
e 2 120
e 2 121
e 3 5
e 3 8
e 3 10
e 3 14
e 3 19
e 3 20
e 3 21
e 3 23
e 3 24
e 3 25
e 3 26
e 3 28
e 3 30
e 3 32
e 3 34
e 3 35
e 3 36
e 3 38
e 3 40
e 3 41
e 3 42
e 3 43
e 3 44
e 3 48
e 3 49
e 3 50
e 3 51
e 3 52
e 3 53
e 3 54
e 3 56
e 3 58
e 3 60
e 3 62
e 3 64
e 3 65
e 3 69
e 3 70
e 3 76
e 3 77
e 3 78
e 3 80
e 3 81
e 3 82
e 3 83
e 3 86
e 3 87
e 3 90
e 3 91
e 3 92
e 3 94
e 3 95
e 3 96
e 3 98
e 3 107
e 3 108
e 3 109
e 3 111
e 3 112
e 3 115
e 3 118
e 3 119
e 3 120
e 3 121
e 4 8
e 4 9
e 4 10
e 4 15
e 4 21
e 4 23
e 4 25
e 4 26
e 4 28
e 4 33
e 4 34
e 4 35
e 4 39
e 4 40
e 4 43
e 4 44
e 4 45
e 4 46
e 4 47
e 4 48
e 4 51
e 4 52
e 4 55
e 4 57
e 4 58
e 4 60
e 4 63
e 4 72
e 4 74
e 4 75
e 4 76
e 4 78
e 4 79
e 4 80
e 4 82
e 4 83
e 4 84
e 4 87
e 4 88
e 4 89
e 4 91
e 4 92
e 4 97
e 4 98
e 4 99
e 4 102
e 4 103
e 4 105
e 4 106
e 4 111
e 4 112
e 4 115
e 4 118
e 4 121
e 5 8
e 5 9
e 5 10
e 5 12
e 5 13
e 5 14
e 5 15
e 5 16
e 5 17
e 5 18
e 5 19
e 5 20
e 5 21
e 5 23
e 5 24
e 5 27
e 5 28
e 5 29
e 5 32
e 5 33
e 5 41
e 5 43
e 5 49
e 5 51
e 5 52
e 5 54
e 5 57
e 5 62
e 5 63
e 5 65
e 5 66
e 5 67
e 5 69
e 5 71
e 5 76
e 5 77
e 5 78
e 5 85
e 5 87
e 5 88
e 5 90
e 5 91
e 5 92
e 5 93
e 5 94
e 5 96
e 5 100
e 5 101
e 5 102
e 5 103
e 5 104
e 5 105
e 5 107
e 5 109
e 5 110
e 5 111
e 5 113
e 5 114
e 5 115
e 5 116
e 5 117
e 5 118
e 5 121
e 6 7
e 6 8
e 6 11
e 6 14
e 6 16
e 6 18
e 6 19
e 6 20
e 6 21
e 6 23
e 6 25
e 6 28
e 6 29
e 6 30
e 6 32
e 6 33
e 6 35
e 6 38
e 6 40
e 6 42
e 6 43
e 6 44
e 6 45
e 6 49
e 6 52
e 6 55
e 6 57
e 6 59
e 6 61
e 6 64
e 6 68
e 6 74
e 6 75
e 6 77
e 6 78
e 6 79
e 6 82
e 6 83
e 6 85
e 6 86
e 6 89
e 6 90
e 6 92
e 6 94
e 6 95
e 6 98
e 6 100
e 6 102
e 6 103
e 6 104
e 6 109
e 6 111
e 6 112
e 6 113
e 6 114
e 6 117
e 6 119
e 7 8
e 7 10
e 7 11
e 7 12
e 7 13
e 7 14
e 7 16
e 7 18
e 7 20
e 7 25
e 7 26
e 7 28
e 7 29
e 7 30
e 7 31
e 7 32
e 7 33
e 7 37
e 7 38
e 7 40
e 7 41
e 7 42
e 7 43
e 7 44
e 7 45
e 7 46
e 7 48
e 7 52
e 7 54
e 7 56
e 7 57
e 7 58
e 7 59
e 7 61
e 7 63
e 7 64
e 7 66
e 7 69
e 7 70
e 7 73
e 7 74
e 7 76
e 7 77
e 7 78
e 7 79
e 7 80
e 7 81
e 7 84
e 7 85
e 7 86
e 7 87
e 7 88
e 7 90
e 7 93
e 7 96
e 7 97
e 7 99
e 7 103
e 7 106
e 7 108
e 7 109
e 7 112
e 7 115
e 7 117
e 7 119
e 8 10
e 8 13
e 8 15
e 8 16
e 8 17
e 8 18
e 8 19
e 8 20
e 8 21
e 8 23
e 8 25
e 8 26
e 8 27
e 8 30
e 8 32
e 8 33
e 8 34
e 8 35
e 8 38
e 8 40
e 8 42
e 8 43
e 8 44
e 8 46
e 8 49
e 8 50
e 8 53
e 8 54
e 8 55
e 8 57
e 8 58
e 8 59
e 8 61
e 8 62
e 8 64
e 8 65
e 8 67
e 8 69
e 8 70
e 8 71
e 8 72
e 8 73
e 8 78
e 8 81
e 8 84
e 8 86
e 8 87
e 8 91
e 8 92
e 8 93
e 8 94
e 8 96
e 8 97
e 8 98
e 8 100
e 8 102
e 8 103
e 8 106
e 8 112
e 8 114
e 8 117
e 9 10
e 9 12
e 9 13
e 9 14
e 9 15
e 9 18
e 9 20
e 9 21
e 9 23
e 9 25
e 9 26
e 9 27
e 9 28
e 9 29
e 9 30
e 9 31
e 9 33
e 9 34
e 9 35
e 9 37
e 9 46
e 9 50
e 9 51
e 9 53
e 9 55
e 9 57
e 9 61
e 9 62
e 9 63
e 9 64
e 9 65
e 9 66
e 9 71
e 9 72
e 9 74
e 9 75
e 9 77
e 9 80
e 9 82
e 9 83
e 9 88
e 9 90
e 9 91
e 9 93
e 9 94
e 9 96
e 9 97
e 9 98
e 9 101
e 9 102
e 9 104
e 9 106
e 9 107
e 9 108
e 9 111
e 9 112
e 9 114
e 9 120
e 9 121
e 10 12
e 10 14
e 10 15
e 10 17
e 10 19
e 10 21
e 10 22
e 10 23
e 10 26
e 10 27
e 10 28
e 10 29
e 10 30
e 10 31
e 10 35
e 10 36
e 10 37
e 10 39
e 10 43
e 10 44
e 10 45
e 10 48
e 10 51
e 10 55
e 10 57
e 10 58
e 10 59
e 10 60
e 10 61
e 10 62
e 10 63
e 10 64
e 10 65
e 10 66
e 10 67
e 10 70
e 10 71
e 10 73
e 10 74
e 10 75
e 10 78
e 10 81
e 10 82
e 10 85
e 10 87
e 10 88
e 10 91
e 10 92
e 10 95
e 10 100
e 10 101
e 10 102
e 10 104
e 10 105
e 10 108
e 10 109
e 10 110
e 10 116
e 10 117
e 11 13
e 11 15
e 11 17
e 11 18
e 11 21
e 11 26
e 11 27
e 11 30
e 11 32
e 11 33
e 11 34
e 11 35
e 11 37
e 11 38
e 11 39
e 11 40
e 11 47
e 11 52
e 11 54
e 11 55
e 11 56
e 11 61
e 11 62
e 11 65
e 11 66
e 11 69
e 11 70
e 11 73
e 11 78
e 11 87
e 11 89
e 11 97
e 11 100
e 11 101
e 11 102
e 11 103
e 11 104
e 11 106
e 11 107
e 11 109
e 11 111
e 11 112
e 11 113
e 11 116
e 11 117
e 11 119
e 11 120
e 12 13
e 12 15
e 12 16
e 12 17
e 12 19
e 12 20
e 12 22
e 12 25
e 12 27
e 12 28
e 12 30
e 12 31
e 12 34
e 12 35
e 12 38
e 12 39
e 12 43
e 12 44
e 12 49
e 12 50
e 12 51
e 12 52
e 12 57
e 12 58
e 12 59
e 12 61
e 12 63
e 12 65
e 12 66
e 12 67
e 12 68
e 12 69
e 12 71
e 12 72
e 12 73
e 12 75
e 12 77
e 12 78
e 12 80
e 12 88
e 12 91
e 12 94
e 12 95
e 12 105
e 12 106
e 12 108
e 12 109
e 12 112
e 12 113
e 12 114
e 12 118
e 12 120
e 12 121
e 13 14
e 13 15
e 13 17
e 13 19
e 13 20
e 13 24
e 13 26
e 13 28
e 13 29
e 13 30
e 13 33
e 13 36
e 13 38
e 13 42
e 13 46
e 13 49
e 13 51
e 13 52
e 13 54
e 13 55
e 13 56
e 13 58
e 13 59
e 13 64
e 13 66
e 13 67
e 13 69
e 13 70
e 13 76
e 13 77
e 13 78
e 13 79
e 13 83
e 13 86
e 13 89
e 13 93
e 13 94
e 13 95
e 13 96
e 13 97
e 13 98
e 13 100
e 13 103
e 13 106
e 13 107
e 13 115
e 13 117
e 13 118
e 13 119
e 13 120
e 14 19
e 14 20
e 14 22
e 14 24
e 14 25
e 14 26
e 14 29
e 14 30
e 14 34
e 14 36
e 14 39
e 14 40
e 14 41
e 14 42
e 14 44
e 14 45
e 14 49
e 14 50
e 14 53
e 14 54
e 14 56
e 14 58
e 14 59
e 14 61
e 14 63
e 14 66
e 14 67
e 14 68
e 14 73
e 14 75
e 14 76
e 14 78
e 14 79
e 14 81
e 14 83
e 14 85
e 14 86
e 14 87
e 14 90
e 14 91
e 14 95
e 14 96
e 14 97
e 14 98
e 14 99
e 14 100
e 14 101
e 14 102
e 14 103
e 14 106
e 14 107
e 14 109
e 14 110
e 14 111
e 14 114
e 14 115
e 14 116
e 14 118
e 14 121
e 15 19
e 15 20
e 15 21
e 15 25
e 15 27
e 15 28
e 15 29
e 15 30
e 15 31
e 15 34
e 15 36
e 15 37
e 15 38
e 15 39
e 15 43
e 15 44
e 15 45
e 15 46
e 15 47
e 15 50
e 15 51
e 15 53
e 15 54
e 15 55
e 15 60
e 15 61
e 15 63
e 15 64
e 15 68
e 15 70
e 15 76
e 15 77
e 15 78
e 15 79
e 15 80
e 15 81
e 15 84
e 15 89
e 15 91
e 15 92
e 15 94
e 15 96
e 15 99
e 15 102
e 15 103
e 15 104
e 15 105
e 15 107
e 15 108
e 15 109
e 15 110
e 15 113
e 15 114
e 15 121
e 16 17
e 16 19
e 16 21
e 16 24
e 16 25
e 16 26
e 16 27
e 16 29
e 16 31
e 16 32
e 16 33
e 16 34
e 16 36
e 16 37
e 16 38
e 16 41
e 16 43
e 16 44
e 16 45
e 16 47
e 16 48
e 16 49
e 16 52
e 16 53
e 16 55
e 16 56
e 16 57
e 16 58
e 16 59
e 16 60
e 16 63
e 16 64
e 16 65
e 16 66
e 16 68
e 16 70
e 16 71
e 16 73
e 16 76
e 16 78
e 16 80
e 16 81
e 16 84
e 16 85
e 16 89
e 16 90
e 16 95
e 16 99
e 16 103
e 16 107
e 16 109
e 16 110
e 16 111
e 16 112
e 16 113
e 16 114
e 16 116
e 16 117
e 16 118
e 16 120
e 17 18
e 17 20
e 17 21
e 17 24
e 17 25
e 17 28
e 17 30
e 17 34
e 17 35
e 17 36
e 17 38
e 17 39
e 17 40
e 17 44
e 17 45
e 17 46
e 17 49
e 17 51
e 17 57
e 17 58
e 17 59
e 17 61
e 17 66
e 17 70
e 17 73
e 17 80
e 17 82
e 17 83
e 17 84
e 17 85
e 17 86
e 17 88
e 17 91
e 17 93
e 17 94
e 17 96
e 17 100
e 17 103
e 17 107
e 17 109
e 17 110
e 17 113
e 17 114
e 17 115
e 17 116
e 17 117
e 17 120
e 17 121
e 18 19
e 18 20
e 18 21
e 18 22
e 18 25
e 18 27
e 18 30
e 18 31
e 18 32
e 18 33
e 18 34
e 18 35
e 18 40
e 18 41
e 18 44
e 18 45
e 18 46
e 18 53
e 18 54
e 18 55
e 18 56
e 18 57
e 18 58
e 18 59
e 18 61
e 18 62
e 18 65
e 18 74
e 18 75
e 18 77
e 18 78
e 18 79
e 18 81
e 18 83
e 18 84
e 18 90
e 18 93
e 18 95
e 18 99
e 18 100
e 18 101
e 18 102
e 18 103
e 18 105
e 18 106
e 18 108
e 18 109
e 18 110
e 18 114
e 18 121
e 19 20
e 19 25
e 19 27
e 19 30
e 19 31
e 19 32
e 19 35
e 19 37
e 19 39
e 19 41
e 19 42
e 19 43
e 19 46
e 19 50
e 19 57
e 19 58
e 19 60
e 19 63
e 19 65
e 19 68
e 19 69
e 19 70
e 19 72
e 19 73
e 19 75
e 19 78
e 19 79
e 19 80
e 19 84
e 19 85
e 19 86
e 19 89
e 19 90
e 19 91
e 19 94
e 19 96
e 19 97
e 19 98
e 19 100
e 19 101
e 19 102
e 19 103
e 19 104
e 19 105
e 19 108
e 19 111
e 19 113
e 19 116
e 19 120
e 20 21
e 20 24
e 20 25
e 20 26
e 20 27
e 20 28
e 20 29
e 20 30
e 20 31
e 20 32
e 20 33
e 20 34
e 20 37
e 20 38
e 20 39
e 20 41
e 20 46
e 20 47
e 20 51
e 20 52
e 20 53
e 20 55
e 20 56
e 20 58
e 20 63
e 20 65
e 20 67
e 20 68
e 20 73
e 20 74
e 20 75
e 20 77
e 20 80
e 20 81
e 20 82
e 20 83
e 20 87
e 20 88
e 20 91
e 20 92
e 20 96
e 20 97
e 20 98
e 20 99
e 20 101
e 20 104
e 20 105
e 20 106
e 20 107
e 20 108
e 20 109
e 20 111
e 20 113
e 20 115
e 20 117
e 20 118
e 21 24
e 21 27
e 21 28
e 21 31
e 21 32
e 21 33
e 21 34
e 21 38
e 21 39
e 21 43
e 21 51
e 21 52
e 21 53
e 21 56
e 21 58
e 21 62
e 21 64
e 21 66
e 21 70
e 21 74
e 21 76
e 21 77
e 21 78
e 21 79
e 21 80
e 21 81
e 21 84
e 21 86
e 21 87
e 21 88
e 21 91
e 21 92
e 21 93
e 21 94
e 21 96
e 21 97
e 21 98
e 21 99
e 21 103
e 21 107
e 21 111
e 21 114
e 21 116
e 21 118
e 21 119
e 21 121
e 22 24
e 22 25
e 22 28
e 22 29
e 22 30
e 22 31
e 22 34
e 22 37
e 22 38
e 22 39
e 22 41
e 22 42
e 22 43
e 22 45
e 22 51
e 22 53
e 22 54
e 22 56
e 22 57
e 22 60
e 22 63
e 22 64
e 22 65
e 22 67
e 22 69
e 22 71
e 22 73
e 22 74
e 22 77
e 22 79
e 22 81
e 22 82
e 22 83
e 22 85
e 22 86
e 22 87
e 22 89
e 22 90
e 22 93
e 22 94
e 22 96
e 22 99
e 22 100
e 22 104
e 22 105
e 22 106
e 22 108
e 22 112
e 22 113
e 22 114
e 22 117
e 22 119
e 22 120
e 22 121
e 23 26
e 23 27
e 23 30
e 23 31
e 23 34
e 23 35
e 23 36
e 23 41
e 23 43
e 23 44
e 23 47
e 23 49
e 23 54
e 23 57
e 23 59
e 23 61
e 23 62
e 23 64
e 23 68
e 23 69
e 23 71
e 23 73
e 23 75
e 23 77
e 23 79
e 23 80
e 23 81
e 23 84
e 23 85
e 23 86
e 23 89
e 23 90
e 23 91
e 23 92
e 23 93
e 23 94
e 23 99
e 23 100
e 23 101
e 23 102
e 23 103
e 23 106
e 23 109
e 23 111
e 23 112
e 23 114
e 23 116
e 23 117
e 23 121
e 24 28
e 24 29
e 24 31
e 24 32
e 24 35
e 24 36
e 24 37
e 24 42
e 24 44
e 24 46
e 24 49
e 24 50
e 24 51
e 24 53
e 24 54
e 24 55
e 24 58
e 24 60
e 24 62
e 24 63
e 24 64
e 24 65
e 24 66
e 24 68
e 24 69
e 24 70
e 24 71
e 24 72
e 24 73
e 24 74
e 24 75
e 24 76
e 24 79
e 24 87
e 24 89
e 24 90
e 24 91
e 24 92
e 24 98
e 24 101
e 24 103
e 24 105
e 24 108
e 24 110
e 24 111
e 24 113
e 24 114
e 24 116
e 24 117
e 24 118
e 24 120
e 25 26
e 25 28
e 25 31
e 25 34
e 25 37
e 25 40
e 25 41
e 25 42
e 25 43
e 25 44
e 25 45
e 25 48
e 25 49
e 25 52
e 25 54
e 25 59
e 25 60
e 25 68
e 25 70
e 25 72
e 25 73
e 25 74
e 25 77
e 25 79
e 25 83
e 25 85
e 25 86
e 25 87
e 25 88
e 25 89
e 25 91
e 25 94
e 25 95
e 25 96
e 25 97
e 25 99
e 25 100
e 25 102
e 25 103
e 25 104
e 25 105
e 25 108
e 25 111
e 25 114
e 25 121
e 26 27
e 26 29
e 26 33
e 26 35
e 26 36
e 26 37
e 26 39
e 26 40
e 26 44
e 26 45
e 26 48
e 26 51
e 26 52
e 26 53
e 26 58
e 26 59
e 26 61
e 26 62
e 26 67
e 26 68
e 26 70
e 26 71
e 26 72
e 26 76
e 26 77
e 26 79
e 26 80
e 26 81
e 26 83
e 26 84
e 26 85
e 26 87
e 26 88
e 26 89
e 26 90
e 26 91
e 26 92
e 26 95
e 26 96
e 26 97
e 26 98
e 26 100
e 26 102
e 26 105
e 26 106
e 26 108
e 26 111
e 26 112
e 26 115
e 26 119
e 26 121
e 27 31
e 27 33
e 27 34
e 27 35
e 27 39
e 27 40
e 27 43
e 27 44
e 27 45
e 27 46
e 27 47
e 27 48
e 27 49
e 27 50
e 27 51
e 27 54
e 27 56
e 27 57
e 27 59
e 27 67
e 27 69
e 27 71
e 27 72
e 27 73
e 27 75
e 27 76
e 27 80
e 27 81
e 27 83
e 27 85
e 27 86
e 27 87
e 27 88
e 27 91
e 27 94
e 27 99
e 27 101
e 27 104
e 27 106
e 27 107
e 27 109
e 27 110
e 27 111
e 27 113
e 27 116
e 27 117
e 27 118
e 27 119
e 27 120
e 28 29
e 28 30
e 28 32
e 28 34
e 28 35
e 28 40
e 28 45
e 28 48
e 28 51
e 28 52
e 28 53
e 28 54
e 28 56
e 28 57
e 28 58
e 28 59
e 28 60
e 28 61
e 28 62
e 28 63
e 28 64
e 28 65
e 28 67
e 28 68
e 28 70
e 28 71
e 28 74
e 28 76
e 28 77
e 28 79
e 28 80
e 28 81
e 28 83
e 28 84
e 28 85
e 28 86
e 28 88
e 28 92
e 28 93
e 28 97
e 28 98
e 28 99
e 28 103
e 28 104
e 28 106
e 28 110
e 28 111
e 28 114
e 28 116
e 28 118
e 28 119
e 28 120
e 29 30
e 29 34
e 29 35
e 29 36
e 29 39
e 29 40
e 29 43
e 29 46
e 29 48
e 29 49
e 29 55
e 29 56
e 29 57
e 29 61
e 29 63
e 29 68
e 29 69
e 29 72
e 29 73
e 29 74
e 29 76
e 29 77
e 29 78
e 29 79
e 29 83
e 29 84
e 29 85
e 29 87
e 29 91
e 29 92
e 29 94
e 29 96
e 29 98
e 29 101
e 29 103
e 29 104
e 29 106
e 29 107
e 29 108
e 29 111
e 29 112
e 29 114
e 29 118
e 30 33
e 30 35
e 30 37
e 30 39
e 30 41
e 30 46
e 30 48
e 30 50
e 30 51
e 30 60
e 30 61
e 30 62
e 30 65
e 30 66
e 30 67
e 30 68
e 30 69
e 30 72
e 30 73
e 30 74
e 30 75
e 30 79
e 30 84
e 30 85
e 30 89
e 30 90
e 30 91
e 30 92
e 30 95
e 30 98
e 30 100
e 30 102
e 30 104
e 30 106
e 30 107
e 30 109
e 30 112
e 30 114
e 30 115
e 30 120
e 30 121
e 31 33
e 31 35
e 31 38
e 31 40
e 31 41
e 31 45
e 31 47
e 31 50
e 31 53
e 31 55
e 31 56
e 31 57
e 31 58
e 31 59
e 31 60
e 31 61
e 31 63
e 31 64
e 31 68
e 31 72
e 31 73
e 31 76
e 31 78
e 31 79
e 31 80
e 31 86
e 31 87
e 31 88
e 31 89
e 31 91
e 31 92
e 31 93
e 31 94
e 31 98
e 31 104
e 31 105
e 31 106
e 31 107
e 31 110
e 31 113
e 31 116
e 31 119
e 31 120
e 31 121
e 32 33
e 32 34
e 32 35
e 32 37
e 32 42
e 32 44
e 32 46
e 32 48
e 32 50
e 32 51
e 32 54
e 32 56
e 32 57
e 32 61
e 32 62
e 32 64
e 32 65
e 32 67
e 32 68
e 32 69
e 32 71
e 32 74
e 32 75
e 32 76
e 32 77
e 32 79
e 32 80
e 32 81
e 32 82
e 32 83
e 32 85
e 32 86
e 32 87
e 32 89
e 32 90
e 32 92
e 32 94
e 32 97
e 32 99
e 32 102
e 32 103
e 32 107
e 32 108
e 32 109
e 32 111
e 32 113
e 32 114
e 32 116
e 32 117
e 32 118
e 32 121
e 33 35
e 33 41
e 33 42
e 33 44
e 33 47
e 33 48
e 33 49
e 33 50
e 33 52
e 33 53
e 33 57
e 33 59
e 33 61
e 33 63
e 33 65
e 33 68
e 33 69
e 33 70
e 33 71
e 33 76
e 33 77
e 33 78
e 33 83
e 33 84
e 33 86
e 33 87
e 33 89
e 33 91
e 33 94
e 33 95
e 33 97
e 33 98
e 33 101
e 33 106
e 33 109
e 33 110
e 33 113
e 33 115
e 33 116
e 33 117
e 33 118
e 33 119
e 33 120
e 34 35
e 34 40
e 34 42
e 34 48
e 34 49
e 34 52
e 34 55
e 34 58
e 34 59
e 34 61
e 34 64
e 34 68
e 34 69
e 34 70
e 34 72
e 34 75
e 34 76
e 34 78
e 34 82
e 34 84
e 34 85
e 34 87
e 34 89
e 34 91
e 34 92
e 34 93
e 34 94
e 34 95
e 34 98
e 34 100
e 34 104
e 34 105
e 34 106
e 34 109
e 34 111
e 34 116
e 34 117
e 34 118
e 34 119
e 35 36
e 35 37
e 35 38
e 35 40
e 35 41
e 35 42
e 35 46
e 35 48
e 35 50
e 35 54
e 35 55
e 35 56
e 35 57
e 35 59
e 35 61
e 35 65
e 35 67
e 35 70
e 35 71
e 35 72
e 35 76
e 35 78
e 35 79
e 35 84
e 35 85
e 35 86
e 35 87
e 35 89
e 35 90
e 35 91
e 35 92
e 35 98
e 35 99
e 35 101
e 35 103
e 35 104
e 35 105
e 35 109
e 35 110
e 35 115
e 35 117
e 35 118
e 35 119
e 36 39
e 36 40
e 36 42
e 36 43
e 36 52
e 36 53
e 36 55
e 36 57
e 36 59
e 36 60
e 36 62
e 36 63
e 36 67
e 36 69
e 36 70
e 36 74
e 36 77
e 36 79
e 36 80
e 36 82
e 36 83
e 36 88
e 36 89
e 36 90
e 36 92
e 36 93
e 36 97
e 36 106
e 36 108
e 36 110
e 36 112
e 36 114
e 36 115
e 36 117
e 36 118
e 36 119
e 36 120
e 36 121
e 37 38
e 37 40
e 37 42
e 37 45
e 37 48
e 37 50
e 37 52
e 37 53
e 37 56
e 37 57
e 37 59
e 37 61
e 37 63
e 37 65
e 37 66
e 37 68
e 37 78
e 37 79
e 37 80
e 37 81
e 37 84
e 37 85
e 37 87
e 37 88
e 37 90
e 37 91
e 37 92
e 37 95
e 37 97
e 37 98
e 37 99
e 37 100
e 37 101
e 37 103
e 37 104
e 37 106
e 37 112
e 37 114
e 37 115
e 37 116
e 37 117
e 37 119
e 38 39
e 38 43
e 38 44
e 38 45
e 38 46
e 38 47
e 38 51
e 38 52
e 38 55
e 38 60
e 38 62
e 38 65
e 38 66
e 38 67
e 38 68
e 38 70
e 38 71
e 38 73
e 38 77
e 38 82
e 38 84
e 38 87
e 38 91
e 38 93
e 38 94
e 38 96
e 38 97
e 38 98
e 38 100
e 38 102
e 38 103
e 38 104
e 38 105
e 38 107
e 38 109
e 38 111
e 38 112
e 38 113
e 38 114
e 38 116
e 38 119
e 38 120
e 39 40
e 39 43
e 39 44
e 39 46
e 39 48
e 39 49
e 39 53
e 39 54
e 39 55
e 39 59
e 39 60
e 39 61
e 39 63
e 39 64
e 39 67
e 39 70
e 39 72
e 39 73
e 39 75
e 39 77
e 39 78
e 39 80
e 39 82
e 39 84
e 39 86
e 39 87
e 39 88
e 39 91
e 39 92
e 39 93
e 39 94
e 39 95
e 39 97
e 39 98
e 39 99
e 39 100
e 39 104
e 39 106
e 39 108
e 39 111
e 39 114
e 39 116
e 39 117
e 39 118
e 39 119
e 39 120
e 40 41
e 40 42
e 40 44
e 40 45
e 40 46
e 40 47
e 40 48
e 40 49
e 40 52
e 40 55
e 40 56
e 40 57
e 40 59
e 40 60
e 40 63
e 40 65
e 40 66
e 40 67
e 40 68
e 40 70
e 40 72
e 40 73
e 40 74
e 40 76
e 40 77
e 40 79
e 40 80
e 40 83
e 40 86
e 40 87
e 40 88
e 40 89
e 40 92
e 40 93
e 40 94
e 40 97
e 40 100
e 40 102
e 40 107
e 40 109
e 40 111
e 40 114
e 40 115
e 40 117
e 40 119
e 40 120
e 40 121
e 41 42
e 41 43
e 41 48
e 41 50
e 41 51
e 41 54
e 41 55
e 41 57
e 41 58
e 41 59
e 41 60
e 41 62
e 41 68
e 41 71
e 41 72
e 41 73
e 41 74
e 41 75
e 41 77
e 41 78
e 41 80
e 41 81
e 41 82
e 41 83
e 41 84
e 41 85
e 41 86
e 41 88
e 41 91
e 41 94
e 41 96
e 41 97
e 41 100
e 41 103
e 41 104
e 41 107
e 41 108
e 41 109
e 41 111
e 41 112
e 41 113
e 41 114
e 41 115
e 41 117
e 41 118
e 41 120
e 41 121
e 42 43
e 42 46
e 42 48
e 42 52
e 42 53
e 42 54
e 42 55
e 42 56
e 42 60
e 42 65
e 42 66
e 42 68
e 42 69
e 42 72
e 42 73
e 42 74
e 42 77
e 42 78
e 42 81
e 42 82
e 42 84
e 42 85
e 42 86
e 42 87
e 42 88
e 42 89
e 42 90
e 42 92
e 42 93
e 42 94
e 42 95
e 42 98
e 42 99
e 42 100
e 42 103
e 42 109
e 42 110
e 42 112
e 42 113
e 42 114
e 42 115
e 42 119
e 42 121
e 43 46
e 43 47
e 43 48
e 43 49
e 43 52
e 43 53
e 43 54
e 43 59
e 43 60
e 43 64
e 43 66
e 43 68
e 43 70
e 43 71
e 43 72
e 43 73
e 43 74
e 43 76
e 43 78
e 43 79
e 43 81
e 43 82
e 43 84
e 43 87
e 43 88
e 43 90
e 43 91
e 43 92
e 43 94
e 43 95
e 43 96
e 43 98
e 43 99
e 43 101
e 43 102
e 43 106
e 43 111
e 43 113
e 43 114
e 43 115
e 43 116
e 43 117
e 43 120
e 44 45
e 44 47
e 44 48
e 44 49
e 44 54
e 44 55
e 44 58
e 44 59
e 44 62
e 44 63
e 44 64
e 44 65
e 44 67
e 44 71
e 44 75
e 44 77
e 44 84
e 44 85
e 44 90
e 44 92
e 44 93
e 44 96
e 44 97
e 44 98
e 44 99
e 44 100
e 44 102
e 44 103
e 44 105
e 44 107
e 44 108
e 44 110
e 44 112
e 44 113
e 44 114
e 44 117
e 44 118
e 44 119
e 44 120
e 45 53
e 45 54
e 45 55
e 45 56
e 45 59
e 45 62
e 45 64
e 45 65
e 45 66
e 45 69
e 45 70
e 45 72
e 45 75
e 45 76
e 45 78
e 45 80
e 45 82
e 45 83
e 45 84
e 45 85
e 45 88
e 45 91
e 45 92
e 45 93
e 45 100
e 45 101
e 45 102
e 45 105
e 45 106
e 45 107
e 45 109
e 45 110
e 45 111
e 45 114
e 45 115
e 45 119
e 45 120
e 45 121
e 46 50
e 46 52
e 46 53
e 46 58
e 46 60
e 46 61
e 46 67
e 46 68
e 46 70
e 46 73
e 46 74
e 46 76
e 46 77
e 46 78
e 46 79
e 46 80
e 46 83
e 46 92
e 46 94
e 46 95
e 46 97
e 46 99
e 46 102
e 46 104
e 46 105
e 46 110
e 46 112
e 46 113
e 46 116
e 46 119
e 46 120
e 46 121
e 47 48
e 47 49
e 47 50
e 47 51
e 47 53
e 47 59
e 47 60
e 47 61
e 47 62
e 47 63
e 47 64
e 47 65
e 47 67
e 47 68
e 47 73
e 47 75
e 47 76
e 47 77
e 47 78
e 47 80
e 47 83
e 47 87
e 47 90
e 47 91
e 47 92
e 47 94
e 47 96
e 47 98
e 47 100
e 47 104
e 47 105
e 47 106
e 47 109
e 47 110
e 47 112
e 47 113
e 47 114
e 47 115
e 47 118
e 47 119
e 47 120
e 47 121
e 48 49
e 48 51
e 48 53
e 48 56
e 48 57
e 48 64
e 48 65
e 48 69
e 48 71
e 48 72
e 48 74
e 48 76
e 48 78
e 48 80
e 48 83
e 48 84
e 48 86
e 48 92
e 48 94
e 48 95
e 48 96
e 48 98
e 48 102
e 48 103
e 48 104
e 48 105
e 48 106
e 48 107
e 48 110
e 48 114
e 48 115
e 48 116
e 49 50
e 49 52
e 49 54
e 49 55
e 49 56
e 49 58
e 49 59
e 49 62
e 49 65
e 49 67
e 49 68
e 49 71
e 49 72
e 49 74
e 49 77
e 49 79
e 49 80
e 49 81
e 49 82
e 49 83
e 49 91
e 49 93
e 49 94
e 49 95
e 49 96
e 49 99
e 49 100
e 49 105
e 49 107
e 49 109
e 49 112
e 49 116
e 49 119
e 50 53
e 50 57
e 50 60
e 50 63
e 50 69
e 50 72
e 50 76
e 50 78
e 50 79
e 50 81
e 50 82
e 50 83
e 50 84
e 50 85
e 50 86
e 50 88
e 50 89
e 50 90
e 50 91
e 50 93
e 50 95
e 50 96
e 50 98
e 50 99
e 50 100
e 50 102
e 50 104
e 50 106
e 50 107
e 50 108
e 50 109
e 50 110
e 50 111
e 50 112
e 50 114
e 50 115
e 50 118
e 51 52
e 51 53
e 51 54
e 51 55
e 51 56
e 51 58
e 51 59
e 51 61
e 51 63
e 51 64
e 51 72
e 51 73
e 51 76
e 51 82
e 51 83
e 51 85
e 51 87
e 51 88
e 51 91
e 51 92
e 51 93
e 51 96
e 51 98
e 51 99
e 51 102
e 51 103
e 51 105
e 51 108
e 51 110
e 51 112
e 51 113
e 51 114
e 51 115
e 51 118
e 51 121
e 52 53
e 52 54
e 52 57
e 52 58
e 52 59
e 52 60
e 52 61
e 52 62
e 52 65
e 52 67
e 52 68
e 52 70
e 52 74
e 52 75
e 52 84
e 52 85
e 52 86
e 52 87
e 52 88
e 52 89
e 52 91
e 52 92
e 52 94
e 52 97
e 52 98
e 52 101
e 52 102
e 52 109
e 52 112
e 52 114
e 52 116
e 52 117
e 52 119
e 52 121
e 53 54
e 53 57
e 53 58
e 53 62
e 53 63
e 53 66
e 53 67
e 53 73
e 53 78
e 53 80
e 53 82
e 53 88
e 53 90
e 53 94
e 53 95
e 53 97
e 53 105
e 53 107
e 53 112
e 53 113
e 53 120
e 53 121
e 54 55
e 54 57
e 54 64
e 54 65
e 54 68
e 54 71
e 54 72
e 54 73
e 54 74
e 54 76
e 54 78
e 54 79
e 54 82
e 54 84
e 54 88
e 54 89
e 54 92
e 54 94
e 54 95
e 54 97
e 54 101
e 54 103
e 54 104
e 54 105
e 54 108
e 54 112
e 54 113
e 54 114
e 54 115
e 55 57
e 55 58
e 55 60
e 55 64
e 55 69
e 55 70
e 55 71
e 55 72
e 55 73
e 55 75
e 55 79
e 55 80
e 55 82
e 55 86
e 55 87
e 55 90
e 55 91
e 55 92
e 55 94
e 55 95
e 55 97
e 55 98
e 55 102
e 55 104
e 55 106
e 55 107
e 55 108
e 55 109
e 55 110
e 55 111
e 55 116
e 55 121
e 56 57
e 56 58
e 56 62
e 56 64
e 56 65
e 56 66
e 56 69
e 56 71
e 56 76
e 56 79
e 56 80
e 56 81
e 56 82
e 56 83
e 56 84
e 56 85
e 56 86
e 56 93
e 56 94
e 56 96
e 56 100
e 56 104
e 56 107
e 56 108
e 56 109
e 56 113
e 56 115
e 56 117
e 56 118
e 57 58
e 57 59
e 57 60
e 57 62
e 57 63
e 57 64
e 57 67
e 57 69
e 57 73
e 57 77
e 57 78
e 57 84
e 57 86
e 57 89
e 57 91
e 57 92
e 57 94
e 57 96
e 57 98
e 57 99
e 57 100
e 57 102
e 57 104
e 57 105
e 57 106
e 57 111
e 57 112
e 57 113
e 57 115
e 57 116
e 57 119
e 57 120
e 57 121
e 58 59
e 58 60
e 58 61
e 58 65
e 58 66
e 58 67
e 58 72
e 58 73
e 58 74
e 58 75
e 58 77
e 58 78
e 58 79
e 58 81
e 58 90
e 58 91
e 58 93
e 58 97
e 58 100
e 58 102
e 58 104
e 58 107
e 58 108
e 58 109
e 58 112
e 58 113
e 58 117
e 58 118
e 58 119
e 58 120
e 59 61
e 59 63
e 59 64
e 59 68
e 59 69
e 59 70
e 59 71
e 59 72
e 59 73
e 59 74
e 59 83
e 59 84
e 59 85
e 59 89
e 59 90
e 59 92
e 59 94
e 59 95
e 59 97
e 59 100
e 59 101
e 59 104
e 59 105
e 59 107
e 59 108
e 59 110
e 59 114
e 59 115
e 59 118
e 59 120
e 59 121
e 60 65
e 60 66
e 60 67
e 60 71
e 60 72
e 60 73
e 60 75
e 60 77
e 60 80
e 60 81
e 60 82
e 60 83
e 60 84
e 60 86
e 60 89
e 60 93
e 60 94
e 60 97
e 60 99
e 60 101
e 60 104
e 60 105
e 60 106
e 60 107
e 60 108
e 60 110
e 60 111
e 60 112
e 60 113
e 60 114
e 60 116
e 60 119
e 60 120
e 61 62
e 61 63
e 61 64
e 61 65
e 61 66
e 61 69
e 61 74
e 61 75
e 61 81
e 61 83
e 61 84
e 61 86
e 61 88
e 61 89
e 61 90
e 61 92
e 61 93
e 61 94
e 61 95
e 61 96
e 61 101
e 61 105
e 61 107
e 61 109
e 61 113
e 61 114
e 61 118
e 61 120
e 61 121
e 62 63
e 62 66
e 62 70
e 62 71
e 62 72
e 62 73
e 62 75
e 62 82
e 62 83
e 62 84
e 62 85
e 62 87
e 62 93
e 62 95
e 62 99
e 62 100
e 62 101
e 62 102
e 62 107
e 62 108
e 62 111
e 62 114
e 62 116
e 62 118
e 62 119
e 63 64
e 63 67
e 63 68
e 63 73
e 63 76
e 63 77
e 63 78
e 63 82
e 63 84
e 63 86
e 63 87
e 63 90
e 63 91
e 63 92
e 63 93
e 63 94
e 63 95
e 63 96
e 63 100
e 63 102
e 63 104
e 63 106
e 63 109
e 63 111
e 63 115
e 63 118
e 63 121
e 64 65
e 64 66
e 64 70
e 64 72
e 64 73
e 64 74
e 64 75
e 64 79
e 64 83
e 64 85
e 64 88
e 64 89
e 64 90
e 64 91
e 64 92
e 64 93
e 64 94
e 64 99
e 64 101
e 64 102
e 64 104
e 64 105
e 64 108
e 64 111
e 64 115
e 64 117
e 64 119
e 64 120
e 65 67
e 65 68
e 65 70
e 65 71
e 65 72
e 65 73
e 65 74
e 65 75
e 65 76
e 65 78
e 65 79
e 65 81
e 65 83
e 65 84
e 65 86
e 65 91
e 65 94
e 65 97
e 65 98
e 65 99
e 65 100
e 65 101
e 65 106
e 65 110
e 65 111
e 65 117
e 65 120
e 66 71
e 66 72
e 66 73
e 66 74
e 66 75
e 66 76
e 66 77
e 66 79
e 66 82
e 66 86
e 66 87
e 66 88
e 66 89
e 66 92
e 66 93
e 66 95
e 66 96
e 66 99
e 66 100
e 66 101
e 66 105
e 66 106
e 66 107
e 66 111
e 66 113
e 66 114
e 66 116
e 66 120
e 67 70
e 67 71
e 67 73
e 67 79
e 67 81
e 67 83
e 67 84
e 67 86
e 67 87
e 67 91
e 67 94
e 67 98
e 67 101
e 67 104
e 67 107
e 67 109
e 67 110
e 67 111
e 67 112
e 67 114
e 67 116
e 67 118
e 68 69
e 68 70
e 68 72
e 68 73
e 68 75
e 68 76
e 68 77
e 68 80
e 68 81
e 68 84
e 68 86
e 68 90
e 68 96
e 68 100
e 68 102
e 68 104
e 68 105
e 68 106
e 68 107
e 68 109
e 68 110
e 68 111
e 68 120
e 69 70
e 69 72
e 69 74
e 69 75
e 69 76
e 69 77
e 69 78
e 69 79
e 69 84
e 69 85
e 69 86
e 69 88
e 69 89
e 69 91
e 69 93
e 69 94
e 69 98
e 69 99
e 69 102
e 69 103
e 69 104
e 69 106
e 69 107
e 69 108
e 69 109
e 69 110
e 69 112
e 69 114
e 69 115
e 69 119
e 70 71
e 70 73
e 70 75
e 70 78
e 70 82
e 70 90
e 70 92
e 70 95
e 70 96
e 70 99
e 70 100
e 70 106
e 70 111
e 70 115
e 70 116
e 70 118
e 70 119
e 71 72
e 71 73
e 71 74
e 71 75
e 71 77
e 71 79
e 71 80
e 71 83
e 71 86
e 71 89
e 71 93
e 71 94
e 71 95
e 71 97
e 71 100
e 71 101
e 71 107
e 71 112
e 71 113
e 71 116
e 72 73
e 72 74
e 72 77
e 72 78
e 72 80
e 72 82
e 72 85
e 72 87
e 72 94
e 72 95
e 72 103
e 72 107
e 72 112
e 72 114
e 72 116
e 73 77
e 73 80
e 73 82
e 73 83
e 73 84
e 73 85
e 73 89
e 73 92
e 73 95
e 73 98
e 73 104
e 73 105
e 73 106
e 73 109
e 73 113
e 73 114
e 73 119
e 73 120
e 73 121
e 74 75
e 74 76
e 74 79
e 74 80
e 74 82
e 74 83
e 74 84
e 74 87
e 74 88
e 74 92
e 74 93
e 74 94
e 74 95
e 74 98
e 74 99
e 74 100
e 74 101
e 74 103
e 74 104
e 74 105
e 74 106
e 74 110
e 74 111
e 74 112
e 74 115
e 74 116
e 74 117
e 74 118
e 74 119
e 74 120
e 75 77
e 75 82
e 75 83
e 75 89
e 75 92
e 75 93
e 75 94
e 75 95
e 75 97
e 75 98
e 75 99
e 75 101
e 75 108
e 75 109
e 75 110
e 75 111
e 75 112
e 75 116
e 75 117
e 75 119
e 75 120
e 75 121
e 76 79
e 76 82
e 76 83
e 76 86
e 76 88
e 76 90
e 76 94
e 76 96
e 76 97
e 76 100
e 76 101
e 76 106
e 76 107
e 76 108
e 76 109
e 76 110
e 76 111
e 76 116
e 77 81
e 77 82
e 77 83
e 77 84
e 77 85
e 77 90
e 77 93
e 77 96
e 77 97
e 77 98
e 77 99
e 77 104
e 77 105
e 77 106
e 77 107
e 77 111
e 77 118
e 77 120
e 77 121
e 78 81
e 78 83
e 78 84
e 78 86
e 78 93
e 78 96
e 78 97
e 78 98
e 78 100
e 78 101
e 78 102
e 78 103
e 78 105
e 78 106
e 78 107
e 78 109
e 78 110
e 78 111
e 78 112
e 78 114
e 78 117
e 78 119
e 78 120
e 79 81
e 79 82
e 79 84
e 79 88
e 79 90
e 79 92
e 79 95
e 79 96
e 79 97
e 79 100
e 79 103
e 79 109
e 79 110
e 79 112
e 79 114
e 79 115
e 79 118
e 79 120
e 79 121
e 80 81
e 80 84
e 80 85
e 80 86
e 80 88
e 80 89
e 80 90
e 80 91
e 80 94
e 80 97
e 80 98
e 80 99
e 80 102
e 80 104
e 80 105
e 80 106
e 80 107
e 80 114
e 80 119
e 80 120
e 80 121
e 81 82
e 81 83
e 81 84
e 81 85
e 81 90
e 81 91
e 81 94
e 81 98
e 81 101
e 81 102
e 81 103
e 81 109
e 81 110
e 81 111
e 81 112
e 81 113
e 81 115
e 81 117
e 81 118
e 81 119
e 81 121
e 82 90
e 82 91
e 82 92
e 82 94
e 82 95
e 82 98
e 82 100
e 82 101
e 82 103
e 82 104
e 82 105
e 82 106
e 82 107
e 82 108
e 82 109
e 82 110
e 82 116
e 82 117
e 82 118
e 82 119
e 82 120
e 82 121
e 83 85
e 83 88
e 83 90
e 83 91
e 83 92
e 83 93
e 83 94
e 83 95
e 83 96
e 83 98
e 83 99
e 83 100
e 83 101
e 83 104
e 83 106
e 83 109
e 83 119
e 84 91
e 84 93
e 84 95
e 84 96
e 84 98
e 84 99
e 84 100
e 84 101
e 84 102
e 84 103
e 84 105
e 84 111
e 84 112
e 84 113
e 84 114
e 84 117
e 84 119
e 84 120
e 84 121
e 85 86
e 85 91
e 85 92
e 85 94
e 85 95
e 85 97
e 85 100
e 85 103
e 85 105
e 85 108
e 85 109
e 85 110
e 85 117
e 85 120
e 86 88
e 86 89
e 86 91
e 86 92
e 86 93
e 86 94
e 86 95
e 86 96
e 86 99
e 86 100
e 86 101
e 86 102
e 86 103
e 86 106
e 86 107
e 86 109
e 86 111
e 86 113
e 86 114
e 86 116
e 86 117
e 86 119
e 86 120
e 87 88
e 87 89
e 87 93
e 87 95
e 87 96
e 87 97
e 87 102
e 87 103
e 87 104
e 87 107
e 87 113
e 87 118
e 87 121
e 88 89
e 88 92
e 88 95
e 88 97
e 88 99
e 88 100
e 88 101
e 88 104
e 88 106
e 88 111
e 88 112
e 88 114
e 88 120
e 89 91
e 89 92
e 89 94
e 89 101
e 89 103
e 89 104
e 89 105
e 89 107
e 89 108
e 89 109
e 89 110
e 89 111
e 89 112
e 89 113
e 89 114
e 89 115
e 89 117
e 89 118
e 89 120
e 90 92
e 90 93
e 90 95
e 90 96
e 90 98
e 90 99
e 90 100
e 90 101
e 90 103
e 90 107
e 90 109
e 90 111
e 90 112
e 90 114
e 90 117
e 90 119
e 90 120
e 91 93
e 91 95
e 91 99
e 91 100
e 91 101
e 91 102
e 91 103
e 91 104
e 91 106
e 91 107
e 91 109
e 91 110
e 91 111
e 91 116
e 91 119
e 91 120
e 92 93
e 92 95
e 92 96
e 92 100
e 92 106
e 92 107
e 92 116
e 92 117
e 92 118
e 93 97
e 93 98
e 93 102
e 93 103
e 93 106
e 93 107
e 93 108
e 93 109
e 93 111
e 93 114
e 93 119
e 93 120
e 94 95
e 94 96
e 94 97
e 94 98
e 94 102
e 94 103
e 94 104
e 94 105
e 94 107
e 94 108
e 94 110
e 94 111
e 94 112
e 94 113
e 94 115
e 94 118
e 94 119
e 95 96
e 95 97
e 95 99
e 95 101
e 95 107
e 95 108
e 95 112
e 95 114
e 95 115
e 95 116
e 95 118
e 95 119
e 95 120
e 95 121
e 96 97
e 96 98
e 96 99
e 96 101
e 96 102
e 96 105
e 96 107
e 96 109
e 96 110
e 96 112
e 96 113
e 96 116
e 96 118
e 96 119
e 96 120
e 96 121
e 97 98
e 97 100
e 97 102
e 97 104
e 97 105
e 97 106
e 97 108
e 97 111
e 97 112
e 97 113
e 97 115
e 97 116
e 97 117
e 97 120
e 98 99
e 98 100
e 98 101
e 98 102
e 98 103
e 98 108
e 98 110
e 98 111
e 98 113
e 98 115
e 99 106
e 99 108
e 99 110
e 99 111
e 99 112
e 99 113
e 99 114
e 99 118
e 99 119
e 99 120
e 99 121
e 100 101
e 100 105
e 100 112
e 100 113
e 100 114
e 100 118
e 100 121
e 101 103
e 101 104
e 101 105
e 101 106
e 101 107
e 101 110
e 101 112
e 101 115
e 101 116
e 101 118
e 101 121
e 102 105
e 102 111
e 102 112
e 102 113
e 102 115
e 102 116
e 102 117
e 103 107
e 103 108
e 103 109
e 103 111
e 103 112
e 103 113
e 103 114
e 103 117
e 103 121
e 104 105
e 104 106
e 104 111
e 104 112
e 104 114
e 104 115
e 104 119
e 105 108
e 105 109
e 105 111
e 105 113
e 105 116
e 105 119
e 105 120
e 106 107
e 106 108
e 106 109
e 106 110
e 106 112
e 106 116
e 106 117
e 106 118
e 106 119
e 107 110
e 107 111
e 107 113
e 107 114
e 107 115
e 107 117
e 107 119
e 107 121
e 108 109
e 108 110
e 108 111
e 108 112
e 108 115
e 108 116
e 108 118
e 108 119
e 109 112
e 109 113
e 109 114
e 109 116
e 109 121
e 110 111
e 110 114
e 110 115
e 110 117
e 110 121
e 111 113
e 111 118
e 111 120
e 112 120
e 112 121
e 113 119
e 113 120
e 114 115
e 114 116
e 114 120
e 114 121
e 115 116
e 115 119
e 115 120
e 116 117
e 116 118
e 116 121
e 117 118
e 117 119
e 117 121
e 118 120
e 118 121
e 119 120
e 119 121
e 120 121
